\ENCODING=ISO-8859-1
\Problem name: IloCplex

Minimize
 obj: C(1,0) + C(1,1) + C(1,2) + C(1,3) + C(1,4) + C(1,5) + C(1,6) + C(1,7)
      + C(1,8) + C(1,9) + C(1,10) + C(1,11) + C(1,12) + C(1,13) + C(1,14)
      + C(1,15) + C(1,16) + C(1,17) + C(1,18) + C(1,19)
Subject To
 c1:  x(0,0) + x(0,1) + x(0,2) + x(0,3) + x(0,4) + x(0,5) + x(0,6) + x(0,7)
      + x(0,8) + x(0,9) + x(0,10) + x(0,11) + x(0,12) + x(0,13) + x(0,14)
      + x(0,15) + x(0,16) + x(0,17) + x(0,18) + x(0,19)  = 1
 c2:  x(1,0) + x(1,1) + x(1,2) + x(1,3) + x(1,4) + x(1,5) + x(1,6) + x(1,7)
      + x(1,8) + x(1,9) + x(1,10) + x(1,11) + x(1,12) + x(1,13) + x(1,14)
      + x(1,15) + x(1,16) + x(1,17) + x(1,18) + x(1,19)  = 1
 c3:  x(2,0) + x(2,1) + x(2,2) + x(2,3) + x(2,4) + x(2,5) + x(2,6) + x(2,7)
      + x(2,8) + x(2,9) + x(2,10) + x(2,11) + x(2,12) + x(2,13) + x(2,14)
      + x(2,15) + x(2,16) + x(2,17) + x(2,18) + x(2,19)  = 1
 c4:  x(3,0) + x(3,1) + x(3,2) + x(3,3) + x(3,4) + x(3,5) + x(3,6) + x(3,7)
      + x(3,8) + x(3,9) + x(3,10) + x(3,11) + x(3,12) + x(3,13) + x(3,14)
      + x(3,15) + x(3,16) + x(3,17) + x(3,18) + x(3,19)  = 1
 c5:  x(4,0) + x(4,1) + x(4,2) + x(4,3) + x(4,4) + x(4,5) + x(4,6) + x(4,7)
      + x(4,8) + x(4,9) + x(4,10) + x(4,11) + x(4,12) + x(4,13) + x(4,14)
      + x(4,15) + x(4,16) + x(4,17) + x(4,18) + x(4,19)  = 1
 c6:  x(5,0) + x(5,1) + x(5,2) + x(5,3) + x(5,4) + x(5,5) + x(5,6) + x(5,7)
      + x(5,8) + x(5,9) + x(5,10) + x(5,11) + x(5,12) + x(5,13) + x(5,14)
      + x(5,15) + x(5,16) + x(5,17) + x(5,18) + x(5,19)  = 1
 c7:  x(6,0) + x(6,1) + x(6,2) + x(6,3) + x(6,4) + x(6,5) + x(6,6) + x(6,7)
      + x(6,8) + x(6,9) + x(6,10) + x(6,11) + x(6,12) + x(6,13) + x(6,14)
      + x(6,15) + x(6,16) + x(6,17) + x(6,18) + x(6,19)  = 1
 c8:  x(7,0) + x(7,1) + x(7,2) + x(7,3) + x(7,4) + x(7,5) + x(7,6) + x(7,7)
      + x(7,8) + x(7,9) + x(7,10) + x(7,11) + x(7,12) + x(7,13) + x(7,14)
      + x(7,15) + x(7,16) + x(7,17) + x(7,18) + x(7,19)  = 1
 c9:  x(8,0) + x(8,1) + x(8,2) + x(8,3) + x(8,4) + x(8,5) + x(8,6) + x(8,7)
      + x(8,8) + x(8,9) + x(8,10) + x(8,11) + x(8,12) + x(8,13) + x(8,14)
      + x(8,15) + x(8,16) + x(8,17) + x(8,18) + x(8,19)  = 1
 c10: x(9,0) + x(9,1) + x(9,2) + x(9,3) + x(9,4) + x(9,5) + x(9,6) + x(9,7)
      + x(9,8) + x(9,9) + x(9,10) + x(9,11) + x(9,12) + x(9,13) + x(9,14)
      + x(9,15) + x(9,16) + x(9,17) + x(9,18) + x(9,19)  = 1
 c11: x(10,0) + x(10,1) + x(10,2) + x(10,3) + x(10,4) + x(10,5) + x(10,6)
      + x(10,7) + x(10,8) + x(10,9) + x(10,10) + x(10,11) + x(10,12) + x(10,13)
      + x(10,14) + x(10,15) + x(10,16) + x(10,17) + x(10,18) + x(10,19)  = 1
 c12: x(11,0) + x(11,1) + x(11,2) + x(11,3) + x(11,4) + x(11,5) + x(11,6)
      + x(11,7) + x(11,8) + x(11,9) + x(11,10) + x(11,11) + x(11,12) + x(11,13)
      + x(11,14) + x(11,15) + x(11,16) + x(11,17) + x(11,18) + x(11,19)  = 1
 c13: x(12,0) + x(12,1) + x(12,2) + x(12,3) + x(12,4) + x(12,5) + x(12,6)
      + x(12,7) + x(12,8) + x(12,9) + x(12,10) + x(12,11) + x(12,12) + x(12,13)
      + x(12,14) + x(12,15) + x(12,16) + x(12,17) + x(12,18) + x(12,19)  = 1
 c14: x(13,0) + x(13,1) + x(13,2) + x(13,3) + x(13,4) + x(13,5) + x(13,6)
      + x(13,7) + x(13,8) + x(13,9) + x(13,10) + x(13,11) + x(13,12) + x(13,13)
      + x(13,14) + x(13,15) + x(13,16) + x(13,17) + x(13,18) + x(13,19)  = 1
 c15: x(14,0) + x(14,1) + x(14,2) + x(14,3) + x(14,4) + x(14,5) + x(14,6)
      + x(14,7) + x(14,8) + x(14,9) + x(14,10) + x(14,11) + x(14,12) + x(14,13)
      + x(14,14) + x(14,15) + x(14,16) + x(14,17) + x(14,18) + x(14,19)  = 1
 c16: x(15,0) + x(15,1) + x(15,2) + x(15,3) + x(15,4) + x(15,5) + x(15,6)
      + x(15,7) + x(15,8) + x(15,9) + x(15,10) + x(15,11) + x(15,12) + x(15,13)
      + x(15,14) + x(15,15) + x(15,16) + x(15,17) + x(15,18) + x(15,19)  = 1
 c17: x(16,0) + x(16,1) + x(16,2) + x(16,3) + x(16,4) + x(16,5) + x(16,6)
      + x(16,7) + x(16,8) + x(16,9) + x(16,10) + x(16,11) + x(16,12) + x(16,13)
      + x(16,14) + x(16,15) + x(16,16) + x(16,17) + x(16,18) + x(16,19)  = 1
 c18: x(17,0) + x(17,1) + x(17,2) + x(17,3) + x(17,4) + x(17,5) + x(17,6)
      + x(17,7) + x(17,8) + x(17,9) + x(17,10) + x(17,11) + x(17,12) + x(17,13)
      + x(17,14) + x(17,15) + x(17,16) + x(17,17) + x(17,18) + x(17,19)  = 1
 c19: x(18,0) + x(18,1) + x(18,2) + x(18,3) + x(18,4) + x(18,5) + x(18,6)
      + x(18,7) + x(18,8) + x(18,9) + x(18,10) + x(18,11) + x(18,12) + x(18,13)
      + x(18,14) + x(18,15) + x(18,16) + x(18,17) + x(18,18) + x(18,19)  = 1
 c20: x(19,0) + x(19,1) + x(19,2) + x(19,3) + x(19,4) + x(19,5) + x(19,6)
      + x(19,7) + x(19,8) + x(19,9) + x(19,10) + x(19,11) + x(19,12) + x(19,13)
      + x(19,14) + x(19,15) + x(19,16) + x(19,17) + x(19,18) + x(19,19)  = 1
 c21: x(0,0) + x(1,0) + x(2,0) + x(3,0) + x(4,0) + x(5,0) + x(6,0) + x(7,0)
      + x(8,0) + x(9,0) + x(10,0) + x(11,0) + x(12,0) + x(13,0) + x(14,0)
      + x(15,0) + x(16,0) + x(17,0) + x(18,0) + x(19,0)  = 1
 c22: x(0,1) + x(1,1) + x(2,1) + x(3,1) + x(4,1) + x(5,1) + x(6,1) + x(7,1)
      + x(8,1) + x(9,1) + x(10,1) + x(11,1) + x(12,1) + x(13,1) + x(14,1)
      + x(15,1) + x(16,1) + x(17,1) + x(18,1) + x(19,1)  = 1
 c23: x(0,2) + x(1,2) + x(2,2) + x(3,2) + x(4,2) + x(5,2) + x(6,2) + x(7,2)
      + x(8,2) + x(9,2) + x(10,2) + x(11,2) + x(12,2) + x(13,2) + x(14,2)
      + x(15,2) + x(16,2) + x(17,2) + x(18,2) + x(19,2)  = 1
 c24: x(0,3) + x(1,3) + x(2,3) + x(3,3) + x(4,3) + x(5,3) + x(6,3) + x(7,3)
      + x(8,3) + x(9,3) + x(10,3) + x(11,3) + x(12,3) + x(13,3) + x(14,3)
      + x(15,3) + x(16,3) + x(17,3) + x(18,3) + x(19,3)  = 1
 c25: x(0,4) + x(1,4) + x(2,4) + x(3,4) + x(4,4) + x(5,4) + x(6,4) + x(7,4)
      + x(8,4) + x(9,4) + x(10,4) + x(11,4) + x(12,4) + x(13,4) + x(14,4)
      + x(15,4) + x(16,4) + x(17,4) + x(18,4) + x(19,4)  = 1
 c26: x(0,5) + x(1,5) + x(2,5) + x(3,5) + x(4,5) + x(5,5) + x(6,5) + x(7,5)
      + x(8,5) + x(9,5) + x(10,5) + x(11,5) + x(12,5) + x(13,5) + x(14,5)
      + x(15,5) + x(16,5) + x(17,5) + x(18,5) + x(19,5)  = 1
 c27: x(0,6) + x(1,6) + x(2,6) + x(3,6) + x(4,6) + x(5,6) + x(6,6) + x(7,6)
      + x(8,6) + x(9,6) + x(10,6) + x(11,6) + x(12,6) + x(13,6) + x(14,6)
      + x(15,6) + x(16,6) + x(17,6) + x(18,6) + x(19,6)  = 1
 c28: x(0,7) + x(1,7) + x(2,7) + x(3,7) + x(4,7) + x(5,7) + x(6,7) + x(7,7)
      + x(8,7) + x(9,7) + x(10,7) + x(11,7) + x(12,7) + x(13,7) + x(14,7)
      + x(15,7) + x(16,7) + x(17,7) + x(18,7) + x(19,7)  = 1
 c29: x(0,8) + x(1,8) + x(2,8) + x(3,8) + x(4,8) + x(5,8) + x(6,8) + x(7,8)
      + x(8,8) + x(9,8) + x(10,8) + x(11,8) + x(12,8) + x(13,8) + x(14,8)
      + x(15,8) + x(16,8) + x(17,8) + x(18,8) + x(19,8)  = 1
 c30: x(0,9) + x(1,9) + x(2,9) + x(3,9) + x(4,9) + x(5,9) + x(6,9) + x(7,9)
      + x(8,9) + x(9,9) + x(10,9) + x(11,9) + x(12,9) + x(13,9) + x(14,9)
      + x(15,9) + x(16,9) + x(17,9) + x(18,9) + x(19,9)  = 1
 c31: x(0,10) + x(1,10) + x(2,10) + x(3,10) + x(4,10) + x(5,10) + x(6,10)
      + x(7,10) + x(8,10) + x(9,10) + x(10,10) + x(11,10) + x(12,10) + x(13,10)
      + x(14,10) + x(15,10) + x(16,10) + x(17,10) + x(18,10) + x(19,10)  = 1
 c32: x(0,11) + x(1,11) + x(2,11) + x(3,11) + x(4,11) + x(5,11) + x(6,11)
      + x(7,11) + x(8,11) + x(9,11) + x(10,11) + x(11,11) + x(12,11) + x(13,11)
      + x(14,11) + x(15,11) + x(16,11) + x(17,11) + x(18,11) + x(19,11)  = 1
 c33: x(0,12) + x(1,12) + x(2,12) + x(3,12) + x(4,12) + x(5,12) + x(6,12)
      + x(7,12) + x(8,12) + x(9,12) + x(10,12) + x(11,12) + x(12,12) + x(13,12)
      + x(14,12) + x(15,12) + x(16,12) + x(17,12) + x(18,12) + x(19,12)  = 1
 c34: x(0,13) + x(1,13) + x(2,13) + x(3,13) + x(4,13) + x(5,13) + x(6,13)
      + x(7,13) + x(8,13) + x(9,13) + x(10,13) + x(11,13) + x(12,13) + x(13,13)
      + x(14,13) + x(15,13) + x(16,13) + x(17,13) + x(18,13) + x(19,13)  = 1
 c35: x(0,14) + x(1,14) + x(2,14) + x(3,14) + x(4,14) + x(5,14) + x(6,14)
      + x(7,14) + x(8,14) + x(9,14) + x(10,14) + x(11,14) + x(12,14) + x(13,14)
      + x(14,14) + x(15,14) + x(16,14) + x(17,14) + x(18,14) + x(19,14)  = 1
 c36: x(0,15) + x(1,15) + x(2,15) + x(3,15) + x(4,15) + x(5,15) + x(6,15)
      + x(7,15) + x(8,15) + x(9,15) + x(10,15) + x(11,15) + x(12,15) + x(13,15)
      + x(14,15) + x(15,15) + x(16,15) + x(17,15) + x(18,15) + x(19,15)  = 1
 c37: x(0,16) + x(1,16) + x(2,16) + x(3,16) + x(4,16) + x(5,16) + x(6,16)
      + x(7,16) + x(8,16) + x(9,16) + x(10,16) + x(11,16) + x(12,16) + x(13,16)
      + x(14,16) + x(15,16) + x(16,16) + x(17,16) + x(18,16) + x(19,16)  = 1
 c38: x(0,17) + x(1,17) + x(2,17) + x(3,17) + x(4,17) + x(5,17) + x(6,17)
      + x(7,17) + x(8,17) + x(9,17) + x(10,17) + x(11,17) + x(12,17) + x(13,17)
      + x(14,17) + x(15,17) + x(16,17) + x(17,17) + x(18,17) + x(19,17)  = 1
 c39: x(0,18) + x(1,18) + x(2,18) + x(3,18) + x(4,18) + x(5,18) + x(6,18)
      + x(7,18) + x(8,18) + x(9,18) + x(10,18) + x(11,18) + x(12,18) + x(13,18)
      + x(14,18) + x(15,18) + x(16,18) + x(17,18) + x(18,18) + x(19,18)  = 1
 c40: x(0,19) + x(1,19) + x(2,19) + x(3,19) + x(4,19) + x(5,19) + x(6,19)
      + x(7,19) + x(8,19) + x(9,19) + x(10,19) + x(11,19) + x(12,19) + x(13,19)
      + x(14,19) + x(15,19) + x(16,19) + x(17,19) + x(18,19) + x(19,19)  = 1
 c41: - 10 x(0,0) - 15 x(1,0) - 30 x(2,0) - 25 x(3,0) - 8 x(4,0) - 7 x(5,0)
      - 45 x(6,0) - 53 x(7,0) - 23 x(8,0) - 53 x(9,0) - 21 x(10,0) - 43 x(11,0)
      - 24 x(12,0) - 22 x(13,0) - 78 x(14,0) - 34 x(15,0) - 34 x(16,0)
      - 86 x(17,0) - 32 x(18,0) - 21 x(19,0) + C(0,0) >= 0
 c42: C(1,0) - 20 x(0,0) - 21 x(1,0) - 5 x(2,0) - 10 x(3,0) - 4 x(4,0)
      - 8 x(5,0) - 25 x(6,0) - 89 x(7,0) - 34 x(8,0) - 65 x(9,0) - 32 x(10,0)
      - 16 x(11,0) - 76 x(12,0) - 14 x(13,0) - 74 x(14,0) - 87 x(15,0)
      - 42 x(16,0) - 32 x(17,0) - 23 x(18,0) - 75 x(19,0) - C(0,0) >= 0
 c43: - 10 x(0,1) - 15 x(1,1) - 30 x(2,1) - 25 x(3,1) - 8 x(4,1) - 7 x(5,1)
      - 45 x(6,1) - 53 x(7,1) - 23 x(8,1) - 53 x(9,1) - 21 x(10,1) - 43 x(11,1)
      - 24 x(12,1) - 22 x(13,1) - 78 x(14,1) - 34 x(15,1) - 34 x(16,1)
      - 86 x(17,1) - 32 x(18,1) - 21 x(19,1) - C(0,0) + C(0,1) >= 0
 c44: - C(1,0) + C(1,1) - 20 x(0,1) - 21 x(1,1) - 5 x(2,1) - 10 x(3,1)
      - 4 x(4,1) - 8 x(5,1) - 25 x(6,1) - 89 x(7,1) - 34 x(8,1) - 65 x(9,1)
      - 32 x(10,1) - 16 x(11,1) - 76 x(12,1) - 14 x(13,1) - 74 x(14,1)
      - 87 x(15,1) - 42 x(16,1) - 32 x(17,1) - 23 x(18,1) - 75 x(19,1) >= 0
 c45: C(1,1) - 20 x(0,1) - 21 x(1,1) - 5 x(2,1) - 10 x(3,1) - 4 x(4,1)
      - 8 x(5,1) - 25 x(6,1) - 89 x(7,1) - 34 x(8,1) - 65 x(9,1) - 32 x(10,1)
      - 16 x(11,1) - 76 x(12,1) - 14 x(13,1) - 74 x(14,1) - 87 x(15,1)
      - 42 x(16,1) - 32 x(17,1) - 23 x(18,1) - 75 x(19,1) - C(0,1) >= 0
 c46: - 10 x(0,2) - 15 x(1,2) - 30 x(2,2) - 25 x(3,2) - 8 x(4,2) - 7 x(5,2)
      - 45 x(6,2) - 53 x(7,2) - 23 x(8,2) - 53 x(9,2) - 21 x(10,2) - 43 x(11,2)
      - 24 x(12,2) - 22 x(13,2) - 78 x(14,2) - 34 x(15,2) - 34 x(16,2)
      - 86 x(17,2) - 32 x(18,2) - 21 x(19,2) - C(0,1) + C(0,2) >= 0
 c47: - C(1,1) + C(1,2) - 20 x(0,2) - 21 x(1,2) - 5 x(2,2) - 10 x(3,2)
      - 4 x(4,2) - 8 x(5,2) - 25 x(6,2) - 89 x(7,2) - 34 x(8,2) - 65 x(9,2)
      - 32 x(10,2) - 16 x(11,2) - 76 x(12,2) - 14 x(13,2) - 74 x(14,2)
      - 87 x(15,2) - 42 x(16,2) - 32 x(17,2) - 23 x(18,2) - 75 x(19,2) >= 0
 c48: C(1,2) - 20 x(0,2) - 21 x(1,2) - 5 x(2,2) - 10 x(3,2) - 4 x(4,2)
      - 8 x(5,2) - 25 x(6,2) - 89 x(7,2) - 34 x(8,2) - 65 x(9,2) - 32 x(10,2)
      - 16 x(11,2) - 76 x(12,2) - 14 x(13,2) - 74 x(14,2) - 87 x(15,2)
      - 42 x(16,2) - 32 x(17,2) - 23 x(18,2) - 75 x(19,2) - C(0,2) >= 0
 c49: - 10 x(0,3) - 15 x(1,3) - 30 x(2,3) - 25 x(3,3) - 8 x(4,3) - 7 x(5,3)
      - 45 x(6,3) - 53 x(7,3) - 23 x(8,3) - 53 x(9,3) - 21 x(10,3) - 43 x(11,3)
      - 24 x(12,3) - 22 x(13,3) - 78 x(14,3) - 34 x(15,3) - 34 x(16,3)
      - 86 x(17,3) - 32 x(18,3) - 21 x(19,3) - C(0,2) + C(0,3) >= 0
 c50: - C(1,2) + C(1,3) - 20 x(0,3) - 21 x(1,3) - 5 x(2,3) - 10 x(3,3)
      - 4 x(4,3) - 8 x(5,3) - 25 x(6,3) - 89 x(7,3) - 34 x(8,3) - 65 x(9,3)
      - 32 x(10,3) - 16 x(11,3) - 76 x(12,3) - 14 x(13,3) - 74 x(14,3)
      - 87 x(15,3) - 42 x(16,3) - 32 x(17,3) - 23 x(18,3) - 75 x(19,3) >= 0
 c51: C(1,3) - 20 x(0,3) - 21 x(1,3) - 5 x(2,3) - 10 x(3,3) - 4 x(4,3)
      - 8 x(5,3) - 25 x(6,3) - 89 x(7,3) - 34 x(8,3) - 65 x(9,3) - 32 x(10,3)
      - 16 x(11,3) - 76 x(12,3) - 14 x(13,3) - 74 x(14,3) - 87 x(15,3)
      - 42 x(16,3) - 32 x(17,3) - 23 x(18,3) - 75 x(19,3) - C(0,3) >= 0
 c52: - 10 x(0,4) - 15 x(1,4) - 30 x(2,4) - 25 x(3,4) - 8 x(4,4) - 7 x(5,4)
      - 45 x(6,4) - 53 x(7,4) - 23 x(8,4) - 53 x(9,4) - 21 x(10,4) - 43 x(11,4)
      - 24 x(12,4) - 22 x(13,4) - 78 x(14,4) - 34 x(15,4) - 34 x(16,4)
      - 86 x(17,4) - 32 x(18,4) - 21 x(19,4) - C(0,3) + C(0,4) >= 0
 c53: - C(1,3) + C(1,4) - 20 x(0,4) - 21 x(1,4) - 5 x(2,4) - 10 x(3,4)
      - 4 x(4,4) - 8 x(5,4) - 25 x(6,4) - 89 x(7,4) - 34 x(8,4) - 65 x(9,4)
      - 32 x(10,4) - 16 x(11,4) - 76 x(12,4) - 14 x(13,4) - 74 x(14,4)
      - 87 x(15,4) - 42 x(16,4) - 32 x(17,4) - 23 x(18,4) - 75 x(19,4) >= 0
 c54: C(1,4) - 20 x(0,4) - 21 x(1,4) - 5 x(2,4) - 10 x(3,4) - 4 x(4,4)
      - 8 x(5,4) - 25 x(6,4) - 89 x(7,4) - 34 x(8,4) - 65 x(9,4) - 32 x(10,4)
      - 16 x(11,4) - 76 x(12,4) - 14 x(13,4) - 74 x(14,4) - 87 x(15,4)
      - 42 x(16,4) - 32 x(17,4) - 23 x(18,4) - 75 x(19,4) - C(0,4) >= 0
 c55: - 10 x(0,5) - 15 x(1,5) - 30 x(2,5) - 25 x(3,5) - 8 x(4,5) - 7 x(5,5)
      - 45 x(6,5) - 53 x(7,5) - 23 x(8,5) - 53 x(9,5) - 21 x(10,5) - 43 x(11,5)
      - 24 x(12,5) - 22 x(13,5) - 78 x(14,5) - 34 x(15,5) - 34 x(16,5)
      - 86 x(17,5) - 32 x(18,5) - 21 x(19,5) - C(0,4) + C(0,5) >= 0
 c56: - C(1,4) + C(1,5) - 20 x(0,5) - 21 x(1,5) - 5 x(2,5) - 10 x(3,5)
      - 4 x(4,5) - 8 x(5,5) - 25 x(6,5) - 89 x(7,5) - 34 x(8,5) - 65 x(9,5)
      - 32 x(10,5) - 16 x(11,5) - 76 x(12,5) - 14 x(13,5) - 74 x(14,5)
      - 87 x(15,5) - 42 x(16,5) - 32 x(17,5) - 23 x(18,5) - 75 x(19,5) >= 0
 c57: C(1,5) - 20 x(0,5) - 21 x(1,5) - 5 x(2,5) - 10 x(3,5) - 4 x(4,5)
      - 8 x(5,5) - 25 x(6,5) - 89 x(7,5) - 34 x(8,5) - 65 x(9,5) - 32 x(10,5)
      - 16 x(11,5) - 76 x(12,5) - 14 x(13,5) - 74 x(14,5) - 87 x(15,5)
      - 42 x(16,5) - 32 x(17,5) - 23 x(18,5) - 75 x(19,5) - C(0,5) >= 0
 c58: - 10 x(0,6) - 15 x(1,6) - 30 x(2,6) - 25 x(3,6) - 8 x(4,6) - 7 x(5,6)
      - 45 x(6,6) - 53 x(7,6) - 23 x(8,6) - 53 x(9,6) - 21 x(10,6) - 43 x(11,6)
      - 24 x(12,6) - 22 x(13,6) - 78 x(14,6) - 34 x(15,6) - 34 x(16,6)
      - 86 x(17,6) - 32 x(18,6) - 21 x(19,6) - C(0,5) + C(0,6) >= 0
 c59: - C(1,5) + C(1,6) - 20 x(0,6) - 21 x(1,6) - 5 x(2,6) - 10 x(3,6)
      - 4 x(4,6) - 8 x(5,6) - 25 x(6,6) - 89 x(7,6) - 34 x(8,6) - 65 x(9,6)
      - 32 x(10,6) - 16 x(11,6) - 76 x(12,6) - 14 x(13,6) - 74 x(14,6)
      - 87 x(15,6) - 42 x(16,6) - 32 x(17,6) - 23 x(18,6) - 75 x(19,6) >= 0
 c60: C(1,6) - 20 x(0,6) - 21 x(1,6) - 5 x(2,6) - 10 x(3,6) - 4 x(4,6)
      - 8 x(5,6) - 25 x(6,6) - 89 x(7,6) - 34 x(8,6) - 65 x(9,6) - 32 x(10,6)
      - 16 x(11,6) - 76 x(12,6) - 14 x(13,6) - 74 x(14,6) - 87 x(15,6)
      - 42 x(16,6) - 32 x(17,6) - 23 x(18,6) - 75 x(19,6) - C(0,6) >= 0
 c61: - 10 x(0,7) - 15 x(1,7) - 30 x(2,7) - 25 x(3,7) - 8 x(4,7) - 7 x(5,7)
      - 45 x(6,7) - 53 x(7,7) - 23 x(8,7) - 53 x(9,7) - 21 x(10,7) - 43 x(11,7)
      - 24 x(12,7) - 22 x(13,7) - 78 x(14,7) - 34 x(15,7) - 34 x(16,7)
      - 86 x(17,7) - 32 x(18,7) - 21 x(19,7) - C(0,6) + C(0,7) >= 0
 c62: - C(1,6) + C(1,7) - 20 x(0,7) - 21 x(1,7) - 5 x(2,7) - 10 x(3,7)
      - 4 x(4,7) - 8 x(5,7) - 25 x(6,7) - 89 x(7,7) - 34 x(8,7) - 65 x(9,7)
      - 32 x(10,7) - 16 x(11,7) - 76 x(12,7) - 14 x(13,7) - 74 x(14,7)
      - 87 x(15,7) - 42 x(16,7) - 32 x(17,7) - 23 x(18,7) - 75 x(19,7) >= 0
 c63: C(1,7) - 20 x(0,7) - 21 x(1,7) - 5 x(2,7) - 10 x(3,7) - 4 x(4,7)
      - 8 x(5,7) - 25 x(6,7) - 89 x(7,7) - 34 x(8,7) - 65 x(9,7) - 32 x(10,7)
      - 16 x(11,7) - 76 x(12,7) - 14 x(13,7) - 74 x(14,7) - 87 x(15,7)
      - 42 x(16,7) - 32 x(17,7) - 23 x(18,7) - 75 x(19,7) - C(0,7) >= 0
 c64: - 10 x(0,8) - 15 x(1,8) - 30 x(2,8) - 25 x(3,8) - 8 x(4,8) - 7 x(5,8)
      - 45 x(6,8) - 53 x(7,8) - 23 x(8,8) - 53 x(9,8) - 21 x(10,8) - 43 x(11,8)
      - 24 x(12,8) - 22 x(13,8) - 78 x(14,8) - 34 x(15,8) - 34 x(16,8)
      - 86 x(17,8) - 32 x(18,8) - 21 x(19,8) - C(0,7) + C(0,8) >= 0
 c65: - C(1,7) + C(1,8) - 20 x(0,8) - 21 x(1,8) - 5 x(2,8) - 10 x(3,8)
      - 4 x(4,8) - 8 x(5,8) - 25 x(6,8) - 89 x(7,8) - 34 x(8,8) - 65 x(9,8)
      - 32 x(10,8) - 16 x(11,8) - 76 x(12,8) - 14 x(13,8) - 74 x(14,8)
      - 87 x(15,8) - 42 x(16,8) - 32 x(17,8) - 23 x(18,8) - 75 x(19,8) >= 0
 c66: C(1,8) - 20 x(0,8) - 21 x(1,8) - 5 x(2,8) - 10 x(3,8) - 4 x(4,8)
      - 8 x(5,8) - 25 x(6,8) - 89 x(7,8) - 34 x(8,8) - 65 x(9,8) - 32 x(10,8)
      - 16 x(11,8) - 76 x(12,8) - 14 x(13,8) - 74 x(14,8) - 87 x(15,8)
      - 42 x(16,8) - 32 x(17,8) - 23 x(18,8) - 75 x(19,8) - C(0,8) >= 0
 c67: - 10 x(0,9) - 15 x(1,9) - 30 x(2,9) - 25 x(3,9) - 8 x(4,9) - 7 x(5,9)
      - 45 x(6,9) - 53 x(7,9) - 23 x(8,9) - 53 x(9,9) - 21 x(10,9) - 43 x(11,9)
      - 24 x(12,9) - 22 x(13,9) - 78 x(14,9) - 34 x(15,9) - 34 x(16,9)
      - 86 x(17,9) - 32 x(18,9) - 21 x(19,9) - C(0,8) + C(0,9) >= 0
 c68: - C(1,8) + C(1,9) - 20 x(0,9) - 21 x(1,9) - 5 x(2,9) - 10 x(3,9)
      - 4 x(4,9) - 8 x(5,9) - 25 x(6,9) - 89 x(7,9) - 34 x(8,9) - 65 x(9,9)
      - 32 x(10,9) - 16 x(11,9) - 76 x(12,9) - 14 x(13,9) - 74 x(14,9)
      - 87 x(15,9) - 42 x(16,9) - 32 x(17,9) - 23 x(18,9) - 75 x(19,9) >= 0
 c69: C(1,9) - 20 x(0,9) - 21 x(1,9) - 5 x(2,9) - 10 x(3,9) - 4 x(4,9)
      - 8 x(5,9) - 25 x(6,9) - 89 x(7,9) - 34 x(8,9) - 65 x(9,9) - 32 x(10,9)
      - 16 x(11,9) - 76 x(12,9) - 14 x(13,9) - 74 x(14,9) - 87 x(15,9)
      - 42 x(16,9) - 32 x(17,9) - 23 x(18,9) - 75 x(19,9) - C(0,9) >= 0
 c70: - 10 x(0,10) - 15 x(1,10) - 30 x(2,10) - 25 x(3,10) - 8 x(4,10)
      - 7 x(5,10) - 45 x(6,10) - 53 x(7,10) - 23 x(8,10) - 53 x(9,10)
      - 21 x(10,10) - 43 x(11,10) - 24 x(12,10) - 22 x(13,10) - 78 x(14,10)
      - 34 x(15,10) - 34 x(16,10) - 86 x(17,10) - 32 x(18,10) - 21 x(19,10)
      - C(0,9) + C(0,10) >= 0
 c71: - C(1,9) + C(1,10) - 20 x(0,10) - 21 x(1,10) - 5 x(2,10) - 10 x(3,10)
      - 4 x(4,10) - 8 x(5,10) - 25 x(6,10) - 89 x(7,10) - 34 x(8,10)
      - 65 x(9,10) - 32 x(10,10) - 16 x(11,10) - 76 x(12,10) - 14 x(13,10)
      - 74 x(14,10) - 87 x(15,10) - 42 x(16,10) - 32 x(17,10) - 23 x(18,10)
      - 75 x(19,10) >= 0
 c72: C(1,10) - 20 x(0,10) - 21 x(1,10) - 5 x(2,10) - 10 x(3,10) - 4 x(4,10)
      - 8 x(5,10) - 25 x(6,10) - 89 x(7,10) - 34 x(8,10) - 65 x(9,10)
      - 32 x(10,10) - 16 x(11,10) - 76 x(12,10) - 14 x(13,10) - 74 x(14,10)
      - 87 x(15,10) - 42 x(16,10) - 32 x(17,10) - 23 x(18,10) - 75 x(19,10)
      - C(0,10) >= 0
 c73: - 10 x(0,11) - 15 x(1,11) - 30 x(2,11) - 25 x(3,11) - 8 x(4,11)
      - 7 x(5,11) - 45 x(6,11) - 53 x(7,11) - 23 x(8,11) - 53 x(9,11)
      - 21 x(10,11) - 43 x(11,11) - 24 x(12,11) - 22 x(13,11) - 78 x(14,11)
      - 34 x(15,11) - 34 x(16,11) - 86 x(17,11) - 32 x(18,11) - 21 x(19,11)
      - C(0,10) + C(0,11) >= 0
 c74: - C(1,10) + C(1,11) - 20 x(0,11) - 21 x(1,11) - 5 x(2,11) - 10 x(3,11)
      - 4 x(4,11) - 8 x(5,11) - 25 x(6,11) - 89 x(7,11) - 34 x(8,11)
      - 65 x(9,11) - 32 x(10,11) - 16 x(11,11) - 76 x(12,11) - 14 x(13,11)
      - 74 x(14,11) - 87 x(15,11) - 42 x(16,11) - 32 x(17,11) - 23 x(18,11)
      - 75 x(19,11) >= 0
 c75: C(1,11) - 20 x(0,11) - 21 x(1,11) - 5 x(2,11) - 10 x(3,11) - 4 x(4,11)
      - 8 x(5,11) - 25 x(6,11) - 89 x(7,11) - 34 x(8,11) - 65 x(9,11)
      - 32 x(10,11) - 16 x(11,11) - 76 x(12,11) - 14 x(13,11) - 74 x(14,11)
      - 87 x(15,11) - 42 x(16,11) - 32 x(17,11) - 23 x(18,11) - 75 x(19,11)
      - C(0,11) >= 0
 c76: - 10 x(0,12) - 15 x(1,12) - 30 x(2,12) - 25 x(3,12) - 8 x(4,12)
      - 7 x(5,12) - 45 x(6,12) - 53 x(7,12) - 23 x(8,12) - 53 x(9,12)
      - 21 x(10,12) - 43 x(11,12) - 24 x(12,12) - 22 x(13,12) - 78 x(14,12)
      - 34 x(15,12) - 34 x(16,12) - 86 x(17,12) - 32 x(18,12) - 21 x(19,12)
      - C(0,11) + C(0,12) >= 0
 c77: - C(1,11) + C(1,12) - 20 x(0,12) - 21 x(1,12) - 5 x(2,12) - 10 x(3,12)
      - 4 x(4,12) - 8 x(5,12) - 25 x(6,12) - 89 x(7,12) - 34 x(8,12)
      - 65 x(9,12) - 32 x(10,12) - 16 x(11,12) - 76 x(12,12) - 14 x(13,12)
      - 74 x(14,12) - 87 x(15,12) - 42 x(16,12) - 32 x(17,12) - 23 x(18,12)
      - 75 x(19,12) >= 0
 c78: C(1,12) - 20 x(0,12) - 21 x(1,12) - 5 x(2,12) - 10 x(3,12) - 4 x(4,12)
      - 8 x(5,12) - 25 x(6,12) - 89 x(7,12) - 34 x(8,12) - 65 x(9,12)
      - 32 x(10,12) - 16 x(11,12) - 76 x(12,12) - 14 x(13,12) - 74 x(14,12)
      - 87 x(15,12) - 42 x(16,12) - 32 x(17,12) - 23 x(18,12) - 75 x(19,12)
      - C(0,12) >= 0
 c79: - 10 x(0,13) - 15 x(1,13) - 30 x(2,13) - 25 x(3,13) - 8 x(4,13)
      - 7 x(5,13) - 45 x(6,13) - 53 x(7,13) - 23 x(8,13) - 53 x(9,13)
      - 21 x(10,13) - 43 x(11,13) - 24 x(12,13) - 22 x(13,13) - 78 x(14,13)
      - 34 x(15,13) - 34 x(16,13) - 86 x(17,13) - 32 x(18,13) - 21 x(19,13)
      - C(0,12) + C(0,13) >= 0
 c80: - C(1,12) + C(1,13) - 20 x(0,13) - 21 x(1,13) - 5 x(2,13) - 10 x(3,13)
      - 4 x(4,13) - 8 x(5,13) - 25 x(6,13) - 89 x(7,13) - 34 x(8,13)
      - 65 x(9,13) - 32 x(10,13) - 16 x(11,13) - 76 x(12,13) - 14 x(13,13)
      - 74 x(14,13) - 87 x(15,13) - 42 x(16,13) - 32 x(17,13) - 23 x(18,13)
      - 75 x(19,13) >= 0
 c81: C(1,13) - 20 x(0,13) - 21 x(1,13) - 5 x(2,13) - 10 x(3,13) - 4 x(4,13)
      - 8 x(5,13) - 25 x(6,13) - 89 x(7,13) - 34 x(8,13) - 65 x(9,13)
      - 32 x(10,13) - 16 x(11,13) - 76 x(12,13) - 14 x(13,13) - 74 x(14,13)
      - 87 x(15,13) - 42 x(16,13) - 32 x(17,13) - 23 x(18,13) - 75 x(19,13)
      - C(0,13) >= 0
 c82: - 10 x(0,14) - 15 x(1,14) - 30 x(2,14) - 25 x(3,14) - 8 x(4,14)
      - 7 x(5,14) - 45 x(6,14) - 53 x(7,14) - 23 x(8,14) - 53 x(9,14)
      - 21 x(10,14) - 43 x(11,14) - 24 x(12,14) - 22 x(13,14) - 78 x(14,14)
      - 34 x(15,14) - 34 x(16,14) - 86 x(17,14) - 32 x(18,14) - 21 x(19,14)
      - C(0,13) + C(0,14) >= 0
 c83: - C(1,13) + C(1,14) - 20 x(0,14) - 21 x(1,14) - 5 x(2,14) - 10 x(3,14)
      - 4 x(4,14) - 8 x(5,14) - 25 x(6,14) - 89 x(7,14) - 34 x(8,14)
      - 65 x(9,14) - 32 x(10,14) - 16 x(11,14) - 76 x(12,14) - 14 x(13,14)
      - 74 x(14,14) - 87 x(15,14) - 42 x(16,14) - 32 x(17,14) - 23 x(18,14)
      - 75 x(19,14) >= 0
 c84: C(1,14) - 20 x(0,14) - 21 x(1,14) - 5 x(2,14) - 10 x(3,14) - 4 x(4,14)
      - 8 x(5,14) - 25 x(6,14) - 89 x(7,14) - 34 x(8,14) - 65 x(9,14)
      - 32 x(10,14) - 16 x(11,14) - 76 x(12,14) - 14 x(13,14) - 74 x(14,14)
      - 87 x(15,14) - 42 x(16,14) - 32 x(17,14) - 23 x(18,14) - 75 x(19,14)
      - C(0,14) >= 0
 c85: - 10 x(0,15) - 15 x(1,15) - 30 x(2,15) - 25 x(3,15) - 8 x(4,15)
      - 7 x(5,15) - 45 x(6,15) - 53 x(7,15) - 23 x(8,15) - 53 x(9,15)
      - 21 x(10,15) - 43 x(11,15) - 24 x(12,15) - 22 x(13,15) - 78 x(14,15)
      - 34 x(15,15) - 34 x(16,15) - 86 x(17,15) - 32 x(18,15) - 21 x(19,15)
      - C(0,14) + C(0,15) >= 0
 c86: - C(1,14) + C(1,15) - 20 x(0,15) - 21 x(1,15) - 5 x(2,15) - 10 x(3,15)
      - 4 x(4,15) - 8 x(5,15) - 25 x(6,15) - 89 x(7,15) - 34 x(8,15)
      - 65 x(9,15) - 32 x(10,15) - 16 x(11,15) - 76 x(12,15) - 14 x(13,15)
      - 74 x(14,15) - 87 x(15,15) - 42 x(16,15) - 32 x(17,15) - 23 x(18,15)
      - 75 x(19,15) >= 0
 c87: C(1,15) - 20 x(0,15) - 21 x(1,15) - 5 x(2,15) - 10 x(3,15) - 4 x(4,15)
      - 8 x(5,15) - 25 x(6,15) - 89 x(7,15) - 34 x(8,15) - 65 x(9,15)
      - 32 x(10,15) - 16 x(11,15) - 76 x(12,15) - 14 x(13,15) - 74 x(14,15)
      - 87 x(15,15) - 42 x(16,15) - 32 x(17,15) - 23 x(18,15) - 75 x(19,15)
      - C(0,15) >= 0
 c88: - 10 x(0,16) - 15 x(1,16) - 30 x(2,16) - 25 x(3,16) - 8 x(4,16)
      - 7 x(5,16) - 45 x(6,16) - 53 x(7,16) - 23 x(8,16) - 53 x(9,16)
      - 21 x(10,16) - 43 x(11,16) - 24 x(12,16) - 22 x(13,16) - 78 x(14,16)
      - 34 x(15,16) - 34 x(16,16) - 86 x(17,16) - 32 x(18,16) - 21 x(19,16)
      - C(0,15) + C(0,16) >= 0
 c89: - C(1,15) + C(1,16) - 20 x(0,16) - 21 x(1,16) - 5 x(2,16) - 10 x(3,16)
      - 4 x(4,16) - 8 x(5,16) - 25 x(6,16) - 89 x(7,16) - 34 x(8,16)
      - 65 x(9,16) - 32 x(10,16) - 16 x(11,16) - 76 x(12,16) - 14 x(13,16)
      - 74 x(14,16) - 87 x(15,16) - 42 x(16,16) - 32 x(17,16) - 23 x(18,16)
      - 75 x(19,16) >= 0
 c90: C(1,16) - 20 x(0,16) - 21 x(1,16) - 5 x(2,16) - 10 x(3,16) - 4 x(4,16)
      - 8 x(5,16) - 25 x(6,16) - 89 x(7,16) - 34 x(8,16) - 65 x(9,16)
      - 32 x(10,16) - 16 x(11,16) - 76 x(12,16) - 14 x(13,16) - 74 x(14,16)
      - 87 x(15,16) - 42 x(16,16) - 32 x(17,16) - 23 x(18,16) - 75 x(19,16)
      - C(0,16) >= 0
 c91: - 10 x(0,17) - 15 x(1,17) - 30 x(2,17) - 25 x(3,17) - 8 x(4,17)
      - 7 x(5,17) - 45 x(6,17) - 53 x(7,17) - 23 x(8,17) - 53 x(9,17)
      - 21 x(10,17) - 43 x(11,17) - 24 x(12,17) - 22 x(13,17) - 78 x(14,17)
      - 34 x(15,17) - 34 x(16,17) - 86 x(17,17) - 32 x(18,17) - 21 x(19,17)
      - C(0,16) + C(0,17) >= 0
 c92: - C(1,16) + C(1,17) - 20 x(0,17) - 21 x(1,17) - 5 x(2,17) - 10 x(3,17)
      - 4 x(4,17) - 8 x(5,17) - 25 x(6,17) - 89 x(7,17) - 34 x(8,17)
      - 65 x(9,17) - 32 x(10,17) - 16 x(11,17) - 76 x(12,17) - 14 x(13,17)
      - 74 x(14,17) - 87 x(15,17) - 42 x(16,17) - 32 x(17,17) - 23 x(18,17)
      - 75 x(19,17) >= 0
 c93: C(1,17) - 20 x(0,17) - 21 x(1,17) - 5 x(2,17) - 10 x(3,17) - 4 x(4,17)
      - 8 x(5,17) - 25 x(6,17) - 89 x(7,17) - 34 x(8,17) - 65 x(9,17)
      - 32 x(10,17) - 16 x(11,17) - 76 x(12,17) - 14 x(13,17) - 74 x(14,17)
      - 87 x(15,17) - 42 x(16,17) - 32 x(17,17) - 23 x(18,17) - 75 x(19,17)
      - C(0,17) >= 0
 c94: - 10 x(0,18) - 15 x(1,18) - 30 x(2,18) - 25 x(3,18) - 8 x(4,18)
      - 7 x(5,18) - 45 x(6,18) - 53 x(7,18) - 23 x(8,18) - 53 x(9,18)
      - 21 x(10,18) - 43 x(11,18) - 24 x(12,18) - 22 x(13,18) - 78 x(14,18)
      - 34 x(15,18) - 34 x(16,18) - 86 x(17,18) - 32 x(18,18) - 21 x(19,18)
      - C(0,17) + C(0,18) >= 0
 c95: - C(1,17) + C(1,18) - 20 x(0,18) - 21 x(1,18) - 5 x(2,18) - 10 x(3,18)
      - 4 x(4,18) - 8 x(5,18) - 25 x(6,18) - 89 x(7,18) - 34 x(8,18)
      - 65 x(9,18) - 32 x(10,18) - 16 x(11,18) - 76 x(12,18) - 14 x(13,18)
      - 74 x(14,18) - 87 x(15,18) - 42 x(16,18) - 32 x(17,18) - 23 x(18,18)
      - 75 x(19,18) >= 0
 c96: C(1,18) - 20 x(0,18) - 21 x(1,18) - 5 x(2,18) - 10 x(3,18) - 4 x(4,18)
      - 8 x(5,18) - 25 x(6,18) - 89 x(7,18) - 34 x(8,18) - 65 x(9,18)
      - 32 x(10,18) - 16 x(11,18) - 76 x(12,18) - 14 x(13,18) - 74 x(14,18)
      - 87 x(15,18) - 42 x(16,18) - 32 x(17,18) - 23 x(18,18) - 75 x(19,18)
      - C(0,18) >= 0
 c97: - 10 x(0,19) - 15 x(1,19) - 30 x(2,19) - 25 x(3,19) - 8 x(4,19)
      - 7 x(5,19) - 45 x(6,19) - 53 x(7,19) - 23 x(8,19) - 53 x(9,19)
      - 21 x(10,19) - 43 x(11,19) - 24 x(12,19) - 22 x(13,19) - 78 x(14,19)
      - 34 x(15,19) - 34 x(16,19) - 86 x(17,19) - 32 x(18,19) - 21 x(19,19)
      - C(0,18) + C(0,19) >= 0
 c98: - C(1,18) + C(1,19) - 20 x(0,19) - 21 x(1,19) - 5 x(2,19) - 10 x(3,19)
      - 4 x(4,19) - 8 x(5,19) - 25 x(6,19) - 89 x(7,19) - 34 x(8,19)
      - 65 x(9,19) - 32 x(10,19) - 16 x(11,19) - 76 x(12,19) - 14 x(13,19)
      - 74 x(14,19) - 87 x(15,19) - 42 x(16,19) - 32 x(17,19) - 23 x(18,19)
      - 75 x(19,19) >= 0
 c99: C(1,19) - 20 x(0,19) - 21 x(1,19) - 5 x(2,19) - 10 x(3,19) - 4 x(4,19)
      - 8 x(5,19) - 25 x(6,19) - 89 x(7,19) - 34 x(8,19) - 65 x(9,19)
      - 32 x(10,19) - 16 x(11,19) - 76 x(12,19) - 14 x(13,19) - 74 x(14,19)
      - 87 x(15,19) - 42 x(16,19) - 32 x(17,19) - 23 x(18,19) - 75 x(19,19)
      - C(0,19) >= 0
Bounds
 0 <= x(0,0) <= 1
 0 <= x(0,1) <= 1
 0 <= x(0,2) <= 1
 0 <= x(0,3) <= 1
 0 <= x(0,4) <= 1
 0 <= x(0,5) <= 1
 0 <= x(0,6) <= 1
 0 <= x(0,7) <= 1
 0 <= x(0,8) <= 1
 0 <= x(0,9) <= 1
 0 <= x(0,10) <= 1
 0 <= x(0,11) <= 1
 0 <= x(0,12) <= 1
 0 <= x(0,13) <= 1
 0 <= x(0,14) <= 1
 0 <= x(0,15) <= 1
 0 <= x(0,16) <= 1
 0 <= x(0,17) <= 1
 0 <= x(0,18) <= 1
 0 <= x(0,19) <= 1
 0 <= x(1,0) <= 1
 0 <= x(1,1) <= 1
 0 <= x(1,2) <= 1
 0 <= x(1,3) <= 1
 0 <= x(1,4) <= 1
 0 <= x(1,5) <= 1
 0 <= x(1,6) <= 1
 0 <= x(1,7) <= 1
 0 <= x(1,8) <= 1
 0 <= x(1,9) <= 1
 0 <= x(1,10) <= 1
 0 <= x(1,11) <= 1
 0 <= x(1,12) <= 1
 0 <= x(1,13) <= 1
 0 <= x(1,14) <= 1
 0 <= x(1,15) <= 1
 0 <= x(1,16) <= 1
 0 <= x(1,17) <= 1
 0 <= x(1,18) <= 1
 0 <= x(1,19) <= 1
 0 <= x(2,0) <= 1
 0 <= x(2,1) <= 1
 0 <= x(2,2) <= 1
 0 <= x(2,3) <= 1
 0 <= x(2,4) <= 1
 0 <= x(2,5) <= 1
 0 <= x(2,6) <= 1
 0 <= x(2,7) <= 1
 0 <= x(2,8) <= 1
 0 <= x(2,9) <= 1
 0 <= x(2,10) <= 1
 0 <= x(2,11) <= 1
 0 <= x(2,12) <= 1
 0 <= x(2,13) <= 1
 0 <= x(2,14) <= 1
 0 <= x(2,15) <= 1
 0 <= x(2,16) <= 1
 0 <= x(2,17) <= 1
 0 <= x(2,18) <= 1
 0 <= x(2,19) <= 1
 0 <= x(3,0) <= 1
 0 <= x(3,1) <= 1
 0 <= x(3,2) <= 1
 0 <= x(3,3) <= 1
 0 <= x(3,4) <= 1
 0 <= x(3,5) <= 1
 0 <= x(3,6) <= 1
 0 <= x(3,7) <= 1
 0 <= x(3,8) <= 1
 0 <= x(3,9) <= 1
 0 <= x(3,10) <= 1
 0 <= x(3,11) <= 1
 0 <= x(3,12) <= 1
 0 <= x(3,13) <= 1
 0 <= x(3,14) <= 1
 0 <= x(3,15) <= 1
 0 <= x(3,16) <= 1
 0 <= x(3,17) <= 1
 0 <= x(3,18) <= 1
 0 <= x(3,19) <= 1
 0 <= x(4,0) <= 1
 0 <= x(4,1) <= 1
 0 <= x(4,2) <= 1
 0 <= x(4,3) <= 1
 0 <= x(4,4) <= 1
 0 <= x(4,5) <= 1
 0 <= x(4,6) <= 1
 0 <= x(4,7) <= 1
 0 <= x(4,8) <= 1
 0 <= x(4,9) <= 1
 0 <= x(4,10) <= 1
 0 <= x(4,11) <= 1
 0 <= x(4,12) <= 1
 0 <= x(4,13) <= 1
 0 <= x(4,14) <= 1
 0 <= x(4,15) <= 1
 0 <= x(4,16) <= 1
 0 <= x(4,17) <= 1
 0 <= x(4,18) <= 1
 0 <= x(4,19) <= 1
 0 <= x(5,0) <= 1
 0 <= x(5,1) <= 1
 0 <= x(5,2) <= 1
 0 <= x(5,3) <= 1
 0 <= x(5,4) <= 1
 0 <= x(5,5) <= 1
 0 <= x(5,6) <= 1
 0 <= x(5,7) <= 1
 0 <= x(5,8) <= 1
 0 <= x(5,9) <= 1
 0 <= x(5,10) <= 1
 0 <= x(5,11) <= 1
 0 <= x(5,12) <= 1
 0 <= x(5,13) <= 1
 0 <= x(5,14) <= 1
 0 <= x(5,15) <= 1
 0 <= x(5,16) <= 1
 0 <= x(5,17) <= 1
 0 <= x(5,18) <= 1
 0 <= x(5,19) <= 1
 0 <= x(6,0) <= 1
 0 <= x(6,1) <= 1
 0 <= x(6,2) <= 1
 0 <= x(6,3) <= 1
 0 <= x(6,4) <= 1
 0 <= x(6,5) <= 1
 0 <= x(6,6) <= 1
 0 <= x(6,7) <= 1
 0 <= x(6,8) <= 1
 0 <= x(6,9) <= 1
 0 <= x(6,10) <= 1
 0 <= x(6,11) <= 1
 0 <= x(6,12) <= 1
 0 <= x(6,13) <= 1
 0 <= x(6,14) <= 1
 0 <= x(6,15) <= 1
 0 <= x(6,16) <= 1
 0 <= x(6,17) <= 1
 0 <= x(6,18) <= 1
 0 <= x(6,19) <= 1
 0 <= x(7,0) <= 1
 0 <= x(7,1) <= 1
 0 <= x(7,2) <= 1
 0 <= x(7,3) <= 1
 0 <= x(7,4) <= 1
 0 <= x(7,5) <= 1
 0 <= x(7,6) <= 1
 0 <= x(7,7) <= 1
 0 <= x(7,8) <= 1
 0 <= x(7,9) <= 1
 0 <= x(7,10) <= 1
 0 <= x(7,11) <= 1
 0 <= x(7,12) <= 1
 0 <= x(7,13) <= 1
 0 <= x(7,14) <= 1
 0 <= x(7,15) <= 1
 0 <= x(7,16) <= 1
 0 <= x(7,17) <= 1
 0 <= x(7,18) <= 1
 0 <= x(7,19) <= 1
 0 <= x(8,0) <= 1
 0 <= x(8,1) <= 1
 0 <= x(8,2) <= 1
 0 <= x(8,3) <= 1
 0 <= x(8,4) <= 1
 0 <= x(8,5) <= 1
 0 <= x(8,6) <= 1
 0 <= x(8,7) <= 1
 0 <= x(8,8) <= 1
 0 <= x(8,9) <= 1
 0 <= x(8,10) <= 1
 0 <= x(8,11) <= 1
 0 <= x(8,12) <= 1
 0 <= x(8,13) <= 1
 0 <= x(8,14) <= 1
 0 <= x(8,15) <= 1
 0 <= x(8,16) <= 1
 0 <= x(8,17) <= 1
 0 <= x(8,18) <= 1
 0 <= x(8,19) <= 1
 0 <= x(9,0) <= 1
 0 <= x(9,1) <= 1
 0 <= x(9,2) <= 1
 0 <= x(9,3) <= 1
 0 <= x(9,4) <= 1
 0 <= x(9,5) <= 1
 0 <= x(9,6) <= 1
 0 <= x(9,7) <= 1
 0 <= x(9,8) <= 1
 0 <= x(9,9) <= 1
 0 <= x(9,10) <= 1
 0 <= x(9,11) <= 1
 0 <= x(9,12) <= 1
 0 <= x(9,13) <= 1
 0 <= x(9,14) <= 1
 0 <= x(9,15) <= 1
 0 <= x(9,16) <= 1
 0 <= x(9,17) <= 1
 0 <= x(9,18) <= 1
 0 <= x(9,19) <= 1
 0 <= x(10,0) <= 1
 0 <= x(10,1) <= 1
 0 <= x(10,2) <= 1
 0 <= x(10,3) <= 1
 0 <= x(10,4) <= 1
 0 <= x(10,5) <= 1
 0 <= x(10,6) <= 1
 0 <= x(10,7) <= 1
 0 <= x(10,8) <= 1
 0 <= x(10,9) <= 1
 0 <= x(10,10) <= 1
 0 <= x(10,11) <= 1
 0 <= x(10,12) <= 1
 0 <= x(10,13) <= 1
 0 <= x(10,14) <= 1
 0 <= x(10,15) <= 1
 0 <= x(10,16) <= 1
 0 <= x(10,17) <= 1
 0 <= x(10,18) <= 1
 0 <= x(10,19) <= 1
 0 <= x(11,0) <= 1
 0 <= x(11,1) <= 1
 0 <= x(11,2) <= 1
 0 <= x(11,3) <= 1
 0 <= x(11,4) <= 1
 0 <= x(11,5) <= 1
 0 <= x(11,6) <= 1
 0 <= x(11,7) <= 1
 0 <= x(11,8) <= 1
 0 <= x(11,9) <= 1
 0 <= x(11,10) <= 1
 0 <= x(11,11) <= 1
 0 <= x(11,12) <= 1
 0 <= x(11,13) <= 1
 0 <= x(11,14) <= 1
 0 <= x(11,15) <= 1
 0 <= x(11,16) <= 1
 0 <= x(11,17) <= 1
 0 <= x(11,18) <= 1
 0 <= x(11,19) <= 1
 0 <= x(12,0) <= 1
 0 <= x(12,1) <= 1
 0 <= x(12,2) <= 1
 0 <= x(12,3) <= 1
 0 <= x(12,4) <= 1
 0 <= x(12,5) <= 1
 0 <= x(12,6) <= 1
 0 <= x(12,7) <= 1
 0 <= x(12,8) <= 1
 0 <= x(12,9) <= 1
 0 <= x(12,10) <= 1
 0 <= x(12,11) <= 1
 0 <= x(12,12) <= 1
 0 <= x(12,13) <= 1
 0 <= x(12,14) <= 1
 0 <= x(12,15) <= 1
 0 <= x(12,16) <= 1
 0 <= x(12,17) <= 1
 0 <= x(12,18) <= 1
 0 <= x(12,19) <= 1
 0 <= x(13,0) <= 1
 0 <= x(13,1) <= 1
 0 <= x(13,2) <= 1
 0 <= x(13,3) <= 1
 0 <= x(13,4) <= 1
 0 <= x(13,5) <= 1
 0 <= x(13,6) <= 1
 0 <= x(13,7) <= 1
 0 <= x(13,8) <= 1
 0 <= x(13,9) <= 1
 0 <= x(13,10) <= 1
 0 <= x(13,11) <= 1
 0 <= x(13,12) <= 1
 0 <= x(13,13) <= 1
 0 <= x(13,14) <= 1
 0 <= x(13,15) <= 1
 0 <= x(13,16) <= 1
 0 <= x(13,17) <= 1
 0 <= x(13,18) <= 1
 0 <= x(13,19) <= 1
 0 <= x(14,0) <= 1
 0 <= x(14,1) <= 1
 0 <= x(14,2) <= 1
 0 <= x(14,3) <= 1
 0 <= x(14,4) <= 1
 0 <= x(14,5) <= 1
 0 <= x(14,6) <= 1
 0 <= x(14,7) <= 1
 0 <= x(14,8) <= 1
 0 <= x(14,9) <= 1
 0 <= x(14,10) <= 1
 0 <= x(14,11) <= 1
 0 <= x(14,12) <= 1
 0 <= x(14,13) <= 1
 0 <= x(14,14) <= 1
 0 <= x(14,15) <= 1
 0 <= x(14,16) <= 1
 0 <= x(14,17) <= 1
 0 <= x(14,18) <= 1
 0 <= x(14,19) <= 1
 0 <= x(15,0) <= 1
 0 <= x(15,1) <= 1
 0 <= x(15,2) <= 1
 0 <= x(15,3) <= 1
 0 <= x(15,4) <= 1
 0 <= x(15,5) <= 1
 0 <= x(15,6) <= 1
 0 <= x(15,7) <= 1
 0 <= x(15,8) <= 1
 0 <= x(15,9) <= 1
 0 <= x(15,10) <= 1
 0 <= x(15,11) <= 1
 0 <= x(15,12) <= 1
 0 <= x(15,13) <= 1
 0 <= x(15,14) <= 1
 0 <= x(15,15) <= 1
 0 <= x(15,16) <= 1
 0 <= x(15,17) <= 1
 0 <= x(15,18) <= 1
 0 <= x(15,19) <= 1
 0 <= x(16,0) <= 1
 0 <= x(16,1) <= 1
 0 <= x(16,2) <= 1
 0 <= x(16,3) <= 1
 0 <= x(16,4) <= 1
 0 <= x(16,5) <= 1
 0 <= x(16,6) <= 1
 0 <= x(16,7) <= 1
 0 <= x(16,8) <= 1
 0 <= x(16,9) <= 1
 0 <= x(16,10) <= 1
 0 <= x(16,11) <= 1
 0 <= x(16,12) <= 1
 0 <= x(16,13) <= 1
 0 <= x(16,14) <= 1
 0 <= x(16,15) <= 1
 0 <= x(16,16) <= 1
 0 <= x(16,17) <= 1
 0 <= x(16,18) <= 1
 0 <= x(16,19) <= 1
 0 <= x(17,0) <= 1
 0 <= x(17,1) <= 1
 0 <= x(17,2) <= 1
 0 <= x(17,3) <= 1
 0 <= x(17,4) <= 1
 0 <= x(17,5) <= 1
 0 <= x(17,6) <= 1
 0 <= x(17,7) <= 1
 0 <= x(17,8) <= 1
 0 <= x(17,9) <= 1
 0 <= x(17,10) <= 1
 0 <= x(17,11) <= 1
 0 <= x(17,12) <= 1
 0 <= x(17,13) <= 1
 0 <= x(17,14) <= 1
 0 <= x(17,15) <= 1
 0 <= x(17,16) <= 1
 0 <= x(17,17) <= 1
 0 <= x(17,18) <= 1
 0 <= x(17,19) <= 1
 0 <= x(18,0) <= 1
 0 <= x(18,1) <= 1
 0 <= x(18,2) <= 1
 0 <= x(18,3) <= 1
 0 <= x(18,4) <= 1
 0 <= x(18,5) <= 1
 0 <= x(18,6) <= 1
 0 <= x(18,7) <= 1
 0 <= x(18,8) <= 1
 0 <= x(18,9) <= 1
 0 <= x(18,10) <= 1
 0 <= x(18,11) <= 1
 0 <= x(18,12) <= 1
 0 <= x(18,13) <= 1
 0 <= x(18,14) <= 1
 0 <= x(18,15) <= 1
 0 <= x(18,16) <= 1
 0 <= x(18,17) <= 1
 0 <= x(18,18) <= 1
 0 <= x(18,19) <= 1
 0 <= x(19,0) <= 1
 0 <= x(19,1) <= 1
 0 <= x(19,2) <= 1
 0 <= x(19,3) <= 1
 0 <= x(19,4) <= 1
 0 <= x(19,5) <= 1
 0 <= x(19,6) <= 1
 0 <= x(19,7) <= 1
 0 <= x(19,8) <= 1
 0 <= x(19,9) <= 1
 0 <= x(19,10) <= 1
 0 <= x(19,11) <= 1
 0 <= x(19,12) <= 1
 0 <= x(19,13) <= 1
 0 <= x(19,14) <= 1
 0 <= x(19,15) <= 1
 0 <= x(19,16) <= 1
 0 <= x(19,17) <= 1
 0 <= x(19,18) <= 1
 0 <= x(19,19) <= 1
Binaries
 x(0,0)  x(0,1)  x(0,2)  x(0,3)  x(0,4)  x(0,5)  x(0,6)  x(0,7)  x(0,8) 
 x(0,9)  x(0,10)  x(0,11)  x(0,12)  x(0,13)  x(0,14)  x(0,15)  x(0,16) 
 x(0,17)  x(0,18)  x(0,19)  x(1,0)  x(1,1)  x(1,2)  x(1,3)  x(1,4)  x(1,5) 
 x(1,6)  x(1,7)  x(1,8)  x(1,9)  x(1,10)  x(1,11)  x(1,12)  x(1,13)  x(1,14) 
 x(1,15)  x(1,16)  x(1,17)  x(1,18)  x(1,19)  x(2,0)  x(2,1)  x(2,2)  x(2,3) 
 x(2,4)  x(2,5)  x(2,6)  x(2,7)  x(2,8)  x(2,9)  x(2,10)  x(2,11)  x(2,12) 
 x(2,13)  x(2,14)  x(2,15)  x(2,16)  x(2,17)  x(2,18)  x(2,19)  x(3,0)  x(3,1) 
 x(3,2)  x(3,3)  x(3,4)  x(3,5)  x(3,6)  x(3,7)  x(3,8)  x(3,9)  x(3,10) 
 x(3,11)  x(3,12)  x(3,13)  x(3,14)  x(3,15)  x(3,16)  x(3,17)  x(3,18) 
 x(3,19)  x(4,0)  x(4,1)  x(4,2)  x(4,3)  x(4,4)  x(4,5)  x(4,6)  x(4,7) 
 x(4,8)  x(4,9)  x(4,10)  x(4,11)  x(4,12)  x(4,13)  x(4,14)  x(4,15)  x(4,16) 
 x(4,17)  x(4,18)  x(4,19)  x(5,0)  x(5,1)  x(5,2)  x(5,3)  x(5,4)  x(5,5) 
 x(5,6)  x(5,7)  x(5,8)  x(5,9)  x(5,10)  x(5,11)  x(5,12)  x(5,13)  x(5,14) 
 x(5,15)  x(5,16)  x(5,17)  x(5,18)  x(5,19)  x(6,0)  x(6,1)  x(6,2)  x(6,3) 
 x(6,4)  x(6,5)  x(6,6)  x(6,7)  x(6,8)  x(6,9)  x(6,10)  x(6,11)  x(6,12) 
 x(6,13)  x(6,14)  x(6,15)  x(6,16)  x(6,17)  x(6,18)  x(6,19)  x(7,0)  x(7,1) 
 x(7,2)  x(7,3)  x(7,4)  x(7,5)  x(7,6)  x(7,7)  x(7,8)  x(7,9)  x(7,10) 
 x(7,11)  x(7,12)  x(7,13)  x(7,14)  x(7,15)  x(7,16)  x(7,17)  x(7,18) 
 x(7,19)  x(8,0)  x(8,1)  x(8,2)  x(8,3)  x(8,4)  x(8,5)  x(8,6)  x(8,7) 
 x(8,8)  x(8,9)  x(8,10)  x(8,11)  x(8,12)  x(8,13)  x(8,14)  x(8,15)  x(8,16) 
 x(8,17)  x(8,18)  x(8,19)  x(9,0)  x(9,1)  x(9,2)  x(9,3)  x(9,4)  x(9,5) 
 x(9,6)  x(9,7)  x(9,8)  x(9,9)  x(9,10)  x(9,11)  x(9,12)  x(9,13)  x(9,14) 
 x(9,15)  x(9,16)  x(9,17)  x(9,18)  x(9,19)  x(10,0)  x(10,1)  x(10,2) 
 x(10,3)  x(10,4)  x(10,5)  x(10,6)  x(10,7)  x(10,8)  x(10,9)  x(10,10) 
 x(10,11)  x(10,12)  x(10,13)  x(10,14)  x(10,15)  x(10,16)  x(10,17) 
 x(10,18)  x(10,19)  x(11,0)  x(11,1)  x(11,2)  x(11,3)  x(11,4)  x(11,5) 
 x(11,6)  x(11,7)  x(11,8)  x(11,9)  x(11,10)  x(11,11)  x(11,12)  x(11,13) 
 x(11,14)  x(11,15)  x(11,16)  x(11,17)  x(11,18)  x(11,19)  x(12,0)  x(12,1) 
 x(12,2)  x(12,3)  x(12,4)  x(12,5)  x(12,6)  x(12,7)  x(12,8)  x(12,9) 
 x(12,10)  x(12,11)  x(12,12)  x(12,13)  x(12,14)  x(12,15)  x(12,16) 
 x(12,17)  x(12,18)  x(12,19)  x(13,0)  x(13,1)  x(13,2)  x(13,3)  x(13,4) 
 x(13,5)  x(13,6)  x(13,7)  x(13,8)  x(13,9)  x(13,10)  x(13,11)  x(13,12) 
 x(13,13)  x(13,14)  x(13,15)  x(13,16)  x(13,17)  x(13,18)  x(13,19)  x(14,0) 
 x(14,1)  x(14,2)  x(14,3)  x(14,4)  x(14,5)  x(14,6)  x(14,7)  x(14,8) 
 x(14,9)  x(14,10)  x(14,11)  x(14,12)  x(14,13)  x(14,14)  x(14,15)  x(14,16) 
 x(14,17)  x(14,18)  x(14,19)  x(15,0)  x(15,1)  x(15,2)  x(15,3)  x(15,4) 
 x(15,5)  x(15,6)  x(15,7)  x(15,8)  x(15,9)  x(15,10)  x(15,11)  x(15,12) 
 x(15,13)  x(15,14)  x(15,15)  x(15,16)  x(15,17)  x(15,18)  x(15,19)  x(16,0) 
 x(16,1)  x(16,2)  x(16,3)  x(16,4)  x(16,5)  x(16,6)  x(16,7)  x(16,8) 
 x(16,9)  x(16,10)  x(16,11)  x(16,12)  x(16,13)  x(16,14)  x(16,15)  x(16,16) 
 x(16,17)  x(16,18)  x(16,19)  x(17,0)  x(17,1)  x(17,2)  x(17,3)  x(17,4) 
 x(17,5)  x(17,6)  x(17,7)  x(17,8)  x(17,9)  x(17,10)  x(17,11)  x(17,12) 
 x(17,13)  x(17,14)  x(17,15)  x(17,16)  x(17,17)  x(17,18)  x(17,19)  x(18,0) 
 x(18,1)  x(18,2)  x(18,3)  x(18,4)  x(18,5)  x(18,6)  x(18,7)  x(18,8) 
 x(18,9)  x(18,10)  x(18,11)  x(18,12)  x(18,13)  x(18,14)  x(18,15)  x(18,16) 
 x(18,17)  x(18,18)  x(18,19)  x(19,0)  x(19,1)  x(19,2)  x(19,3)  x(19,4) 
 x(19,5)  x(19,6)  x(19,7)  x(19,8)  x(19,9)  x(19,10)  x(19,11)  x(19,12) 
 x(19,13)  x(19,14)  x(19,15)  x(19,16)  x(19,17)  x(19,18)  x(19,19) 
End
